737996615151936645454546962815455467822877162629177435383564991284183556439113765858277792625371122959583777886253561628755343811766556411758386556564864389734525283273972546995424527333955727545469638154545546335484573557355733667458184698842434528993451527393654545545461115686495824718656564333575767293845461116867682333984575727612228585858277743562835647265564126586739374612258558582366754827611685582155949293964545454632125767585582318585827775265292643327945821793714929556478355373419556413973779831652811592864158386474629264129829477962534628774535356197425383413294958272941323795585827728356471565655641385673178386498252898243452866281546744383493771292564999151618933815454677714535383556499995515515161833581846995424527336918454546111169586768219739955182463854546331548576723685728463337845818463449131885582985199941524377742535292649999115516181176565564773529264